c uprop, v00.0, 
c reading from data/prog411.c.cnf
c done reading: 0.002604
p cnf 135 602
-43 -67 0
-43 -63 0
43 63 67 0
-36 63 67 0
-36 -63 -67 0
36 63 -67 0
36 -63 67 0
43 -57 0
-55 -57 0
-43 55 57 0
-43 -50 55 0
43 -50 -55 0
43 50 55 0
-43 50 -55 0
-45 57 0
-41 -45 0
41 45 -57 0
-39 41 -57 0
-39 -41 57 0
39 41 57 0
39 -41 -57 0
-37 45 0
-34 -37 0
34 37 -45 0
34 -45 -65 0
-34 45 -65 0
34 45 65 0
-34 -45 65 0
37 -69 0
-60 -69 0
-37 60 69 0
-37 60 -71 0
37 -60 -71 0
37 60 71 0
-37 -60 71 0
69 -73 0
-52 -73 0
52 -69 73 0
52 -69 -74 0
-52 69 -74 0
52 69 74 0
-52 -69 74 0
73 -76 0
-48 -76 0
48 -73 76 0
48 -73 -77 0
-48 73 -77 0
48 73 77 0
-48 -73 77 0
63 -79 0
67 -79 0
-63 -67 79 0
-63 -67 -80 0
63 67 -80 0
-63 67 80 0
63 -67 80 0
-55 -63 81 0
-55 -79 81 0
-63 -79 81 0
55 63 -81 0
55 79 -81 0
63 79 -81 0
55 -81 -82 0
63 -81 -82 0
79 -81 -82 0
-55 81 82 0
-63 81 82 0
-79 81 82 0
-55 -63 -79 82 0
55 63 79 -82 0
-41 -55 83 0
-41 -81 83 0
-55 -81 83 0
41 55 -83 0
41 81 -83 0
55 81 -83 0
41 -83 -84 0
55 -83 -84 0
81 -83 -84 0
-41 83 84 0
-55 83 84 0
-81 83 84 0
-41 -55 -81 84 0
41 55 81 -84 0
-34 -41 85 0
-34 -83 85 0
-41 -83 85 0
34 41 -85 0
34 83 -85 0
41 83 -85 0
-32 34 -85 0
-32 41 -85 0
-32 83 -85 0
32 -34 85 0
32 -41 85 0
32 -83 85 0
32 -34 -41 -83 0
-32 34 41 83 0
31 -34 -60 0
31 -60 -85 0
31 -34 -85 0
-31 34 60 0
-31 60 85 0
-31 34 85 0
-30 -31 60 0
-30 -31 34 0
-30 -31 85 0
30 31 -60 0
30 31 -34 0
30 31 -85 0
30 -34 -60 -85 0
-30 34 60 85 0
29 -52 -60 0
29 -31 -52 0
29 -31 -60 0
-29 52 60 0
-29 31 52 0
-29 31 60 0
-28 -29 52 0
-28 -29 60 0
-28 -29 31 0
28 29 -52 0
28 29 -60 0
28 29 -31 0
28 -31 -52 -60 0
-28 31 52 60 0
27 -48 -52 0
27 -29 -48 0
27 -29 -52 0
-27 48 52 0
-27 29 48 0
-27 29 52 0
-27 48 -66 0
-27 52 -66 0
-27 29 -66 0
27 -48 66 0
27 -52 66 0
27 -29 66 0
-29 -48 -52 66 0
29 48 52 -66 0
48 -62 0
27 -62 0
-27 -48 62 0
-27 -48 -54 0
27 48 -54 0
27 -48 54 0
-27 48 54 0
-40 -67 0
-40 -80 0
40 67 80 0
-33 67 80 0
-33 -67 -80 0
33 -67 80 0
33 67 -80 0
40 -59 0
-59 -82 0
-40 59 82 0
-40 -51 82 0
40 -51 -82 0
40 51 82 0
-40 51 -82 0
-47 59 0
-47 -84 0
47 -59 84 0
-26 -59 84 0
-26 59 -84 0
26 59 84 0
26 -59 -84 0
-25 47 0
-25 -32 0
25 32 -47 0
-24 32 -47 0
-24 -32 47 0
24 32 47 0
24 -32 -47 0
-21 25 0
-21 -30 0
21 -25 30 0
-18 -25 30 0
-18 25 -30 0
18 25 30 0
18 -25 -30 0
-17 21 0
-17 -28 0
17 -21 28 0
-16 -21 28 0
-16 21 -28 0
16 21 28 0
16 -21 -28 0
-15 17 0
-15 -66 0
15 -17 66 0
-14 -17 66 0
-14 17 -66 0
14 17 66 0
14 -17 -66 0
-13 15 0
-13 -54 0
13 -15 54 0
-12 -15 54 0
-12 15 -54 0
12 15 54 0
12 -15 -54 0
-11 13 0
-11 -62 0
11 -13 62 0
-10 -13 62 0
-10 13 -62 0
10 13 62 0
10 -13 -62 0
-9 -22 0
9 22 0
-19 -86 0
19 86 0
-87 -89 0
87 89 0
-90 -92 0
90 92 0
-93 -95 0
93 95 0
-96 -97 0
96 97 0
-22 98 0
22 -98 0
22 -98 -99 0
-98 -99 0
-22 98 99 0
98 99 0
-19 -22 100 0
-19 -98 100 0
-22 -98 100 0
19 22 -100 0
19 98 -100 0
22 98 -100 0
19 -100 -101 0
22 -100 -101 0
98 -100 -101 0
-19 100 101 0
-22 100 101 0
-98 100 101 0
-19 -22 -98 101 0
19 22 98 -101 0
-19 -87 102 0
-87 -100 102 0
-19 -100 102 0
19 87 -102 0
87 100 -102 0
19 100 -102 0
87 -102 -103 0
19 -102 -103 0
100 -102 -103 0
-87 102 103 0
-19 102 103 0
-100 102 103 0
-19 -87 -100 103 0
19 87 100 -103 0
-87 -90 104 0
-90 -102 104 0
-87 -102 104 0
87 90 -104 0
90 102 -104 0
87 102 -104 0
90 -104 -105 0
87 -104 -105 0
102 -104 -105 0
-90 104 105 0
-87 104 105 0
-102 104 105 0
-87 -90 -102 105 0
87 90 102 -105 0
-90 -93 106 0
-93 -104 106 0
-90 -104 106 0
90 93 -106 0
93 104 -106 0
90 104 -106 0
93 -106 -107 0
90 -106 -107 0
104 -106 -107 0
-93 106 107 0
-90 106 107 0
-104 106 107 0
-90 -93 -104 107 0
90 93 104 -107 0
-93 -96 108 0
-96 -106 108 0
-93 -106 108 0
93 96 -108 0
96 106 -108 0
93 106 -108 0
96 -108 -109 0
93 -108 -109 0
106 -108 -109 0
-96 108 109 0
-93 108 109 0
-106 108 109 0
-93 -96 -106 109 0
93 96 106 -109 0
96 -110 0
108 -110 0
-96 -108 110 0
-96 -108 -111 0
96 108 -111 0
-96 108 111 0
96 -108 111 0
101 -112 0
-101 112 0
-103 113 0
103 -113 0
103 -113 -114 0
-113 -114 0
-103 113 114 0
113 114 0
-22 -105 115 0
-105 -113 115 0
-22 -113 115 0
22 105 -115 0
105 113 -115 0
22 113 -115 0
105 -115 -116 0
22 -115 -116 0
113 -115 -116 0
-105 115 116 0
-22 115 116 0
-113 115 116 0
-22 -105 -113 116 0
22 105 113 -116 0
-19 -107 117 0
-107 -115 117 0
-19 -115 117 0
19 107 -117 0
107 115 -117 0
19 115 -117 0
107 -117 -118 0
19 -117 -118 0
115 -117 -118 0
-107 117 118 0
-19 117 118 0
-115 117 118 0
-19 -107 -115 118 0
19 107 115 -118 0
-87 -109 119 0
-109 -117 119 0
-87 -117 119 0
87 109 -119 0
109 117 -119 0
87 117 -119 0
109 -119 -120 0
87 -119 -120 0
117 -119 -120 0
-109 119 120 0
-87 119 120 0
-117 119 120 0
-87 -109 -117 120 0
87 109 117 -120 0
-90 -111 121 0
-111 -119 121 0
-90 -119 121 0
90 111 -121 0
111 119 -121 0
90 119 -121 0
111 -121 -122 0
90 -121 -122 0
119 -121 -122 0
-111 121 122 0
-90 121 122 0
-119 121 122 0
-90 -111 -119 122 0
90 111 119 -122 0
-93 -110 123 0
-110 -121 123 0
-93 -121 123 0
93 110 -123 0
110 121 -123 0
93 121 -123 0
110 -123 -124 0
93 -123 -124 0
121 -123 -124 0
-110 123 124 0
-93 123 124 0
-121 123 124 0
-93 -110 -121 124 0
93 110 121 -124 0
96 -125 0
123 -125 0
-96 -123 125 0
-96 -123 -126 0
96 123 -126 0
-96 123 126 0
96 -123 126 0
-68 116 0
68 -116 0
64 -118 0
-64 118 0
-56 -64 118 0
-56 -64 0
56 64 -118 0
56 64 0
-22 42 -120 0
42 -64 -120 0
-22 42 -64 0
22 -42 120 0
-42 64 120 0
22 -42 64 0
-35 -42 120 0
22 -35 -42 0
-35 -42 64 0
35 42 -120 0
-22 35 42 0
35 42 -64 0
-22 35 -64 -120 0
22 -35 64 120 0
-19 61 -122 0
-42 61 -122 0
-19 -42 61 0
19 -61 122 0
42 -61 122 0
19 42 -61 0
-53 -61 122 0
19 -53 -61 0
42 -53 -61 0
53 61 -122 0
-19 53 61 0
-42 53 61 0
-19 -42 53 -122 0
19 42 -53 122 0
49 -87 -124 0
49 -61 -124 0
49 -61 -87 0
-49 87 124 0
-49 61 124 0
-49 61 87 0
-49 124 -127 0
-49 87 -127 0
-49 61 -127 0
49 -124 127 0
49 -87 127 0
49 -61 127 0
-61 -87 -124 127 0
61 87 124 -127 0
-90 -126 128 0
-49 -126 128 0
-49 -90 128 0
90 126 -128 0
49 126 -128 0
49 90 -128 0
-23 126 -128 0
-23 90 -128 0
-23 49 -128 0
23 -126 128 0
23 -90 128 0
23 -49 128 0
23 -49 -90 -126 0
-23 49 90 126 0
20 -93 -125 0
20 -125 -128 0
20 -93 -128 0
-20 93 125 0
-20 125 128 0
-20 93 128 0
-20 -88 125 0
-20 -88 93 0
-20 -88 128 0
20 88 -125 0
20 88 -93 0
20 88 -128 0
88 -93 -125 -128 0
-88 93 125 128 0
-91 96 0
20 -91 0
-20 91 -96 0
-20 -94 -96 0
20 -94 96 0
20 94 -96 0
-20 94 96 0
-99 -129 0
99 129 0
-112 -130 0
112 130 0
-114 -131 0
114 131 0
-68 -132 0
68 132 0
-56 -133 0
56 133 0
-35 -134 0
35 134 0
-53 -135 0
53 135 0
-44 -127 0
44 127 0
-23 -58 0
23 58 0
-46 -88 0
46 88 0
-38 -94 0
38 94 0
-70 -91 0
70 91 0
67 -72 0
-72 99 0
-67 72 -99 0
-67 -99 0
67 99 0
75 -80 -112 0
-72 75 -80 0
-72 75 -112 0
-75 80 112 0
72 -75 80 0
72 -75 112 0
75 -80 0
75 -112 0
-72 75 0
-72 -80 -112 0
78 -82 -114 0
-75 78 -82 0
-75 78 -114 0
-78 82 114 0
75 -78 82 0
75 -78 114 0
78 -82 0
78 -114 0
-75 78 0
-75 -82 -114 0
8 -68 -84 0
8 -78 -84 0
8 -68 -78 0
-8 68 84 0
-8 78 84 0
-8 68 78 0
8 -84 0
8 -68 0
8 -78 0
-68 -78 -84 0
7 -32 -56 0
7 -8 -32 0
7 -8 -56 0
-7 32 56 0
-7 8 32 0
-7 8 56 0
-7 32 0
-7 56 0
-7 8 0
8 32 56 0
6 -30 -35 0
6 -7 -30 0
6 -7 -35 0
-6 30 35 0
-6 7 30 0
-6 7 35 0
-6 30 0
-6 35 0
-6 7 0
7 30 35 0
5 -28 -53 0
5 -6 -28 0
5 -6 -53 0
-5 28 53 0
-5 6 28 0
-5 6 53 0
5 -28 0
5 -53 0
5 -6 0
-6 -28 -53 0
4 -66 -127 0
4 -5 -66 0
4 -5 -127 0
-4 66 127 0
-4 5 66 0
-4 5 127 0
4 -66 0
4 -127 0
4 -5 0
-5 -66 -127 0
3 -23 -54 0
3 -4 -54 0
3 -4 -23 0
-3 23 54 0
-3 4 54 0
-3 4 23 0
3 -54 0
3 -23 0
3 -4 0
-4 -23 -54 0
2 -62 -88 0
2 -3 -62 0
2 -3 -88 0
-2 62 88 0
-2 3 62 0
-2 3 88 0
2 -62 0
2 -88 0
2 -3 0
-3 -62 -88 0
-1 94 0
-1 2 0
1 -2 -94 0
2 -94 0
-2 94 0
-1 -91 0
1 -91 0
-1 91 0
